* ENCODING=ISO-8859-1
NAME          CPLEX
ROWS
 N  obj1    
 G  c1      
 G  c2      
 G  c3      
 G  c4      
 G  c5      
 G  c6      
 G  c7      
 G  c8      
 G  c9      
 G  c10     
 G  c11     
 G  c12     
 G  c13     
 G  c14     
 G  c15     
 G  c16     
 G  c17     
 G  c18     
 G  c19     
 G  c20     
 G  c21     
 G  c22     
 G  c23     
 G  c24     
 G  c25     
 G  c26     
 G  c27     
 G  c28     
 G  c29     
 G  c30     
 G  c31     
 G  c32     
 G  c33     
 G  c34     
 G  c35     
 G  c36     
 G  c37     
 G  c38     
 G  c39     
 G  c40     
 G  c41     
 G  c42     
 G  c43     
 G  c44     
 G  c45     
 G  c46     
 G  c47     
 G  c48     
 G  c49     
 G  c50     
COLUMNS
    MARK0000  'MARKER'                 'INTORG'
    x1        obj1                            1
    x1        c4                            282
    x1        c6                            358
    x1        c18                           832
    x1        c19                           972
    x1        c31                           185
    x1        c42                           235
    x1        c43                           870
    x2        obj1                            1
    x2        c21                           661
    x2        c27                           363
    x3        obj1                            1
    x3        c2                            378
    x3        c31                           802
    x3        c33                           840
    x3        c37                           898
    x3        c38                           825
    x3        c50                           816
    x4        obj1                            1
    x4        c2                            749
    x4        c29                           950
    x4        c36                           338
    x4        c42                           550
    x5        obj1                            1
    x5        c1                            411
    x5        c14                           439
    x5        c21                           480
    x5        c23                           764
    x5        c24                           137
    x5        c28                           487
    x6        obj1                            1
    x6        c8                            959
    x6        c9                            251
    x6        c15                           739
    x6        c19                           907
    x6        c26                           285
    x6        c27                           412
    x6        c31                           962
    x6        c35                           361
    x6        c47                           190
    x6        c48                           863
    x7        obj1                            1
    x7        c3                            183
    x7        c31                           797
    x8        obj1                            1
    x8        c6                            186
    x8        c9                            794
    x8        c15                           663
    x8        c16                           126
    x8        c36                           604
    x8        c46                           897
    x8        c48                           611
    x9        obj1                            1
    x9        c16                           330
    x9        c37                           356
    x9        c42                           841
    x10       obj1                            1
    x10       c10                           385
    x10       c16                           436
    x10       c17                           179
    x10       c22                           163
    x10       c29                           407
    x10       c32                           622
    x10       c41                           671
    x11       obj1                            1
    x11       c10                           104
    x11       c22                           175
    x11       c26                           526
    x11       c38                           188
    x11       c40                           136
    x12       obj1                            1
    x12       c13                           365
    x12       c16                           911
    x12       c24                           600
    x12       c47                           122
    x12       c49                           518
    x13       obj1                            1
    x13       c6                            607
    x13       c8                            873
    x13       c17                           854
    x13       c29                           828
    x14       obj1                            1
    x14       c4                            595
    x14       c10                           359
    x14       c19                           194
    x14       c21                           601
    x14       c22                           313
    x14       c28                           483
    x14       c43                           301
    x14       c50                           132
    x15       obj1                            1
    x15       c1                            463
    x15       c4                            598
    x15       c15                           126
    x15       c27                           404
    x15       c36                           555
    x15       c44                           161
    x16       obj1                            1
    x16       c8                            488
    x16       c19                           907
    x16       c24                           267
    x16       c25                           104
    x16       c30                           252
    x16       c33                           657
    x16       c35                           367
    x16       c37                           153
    x16       c45                           588
    x17       obj1                            1
    x17       c6                            969
    x17       c12                           491
    x17       c28                           802
    x17       c32                           673
    x17       c50                           947
    x18       obj1                            1
    x18       c13                           145
    x18       c18                           260
    x18       c24                           309
    x19       obj1                            1
    x19       c14                           244
    x19       c19                           656
    x19       c32                           703
    x19       c38                           707
    x19       c42                           483
    x19       c44                           567
    x19       c45                           160
    x20       obj1                            1
    x20       c18                           438
    x20       c23                           393
    x20       c25                           238
    x21       obj1                            1
    x21       c6                            881
    x21       c7                            385
    x21       c37                           687
    x21       c43                           571
    x22       obj1                            1
    x22       c9                            413
    x22       c12                           548
    x22       c23                           762
    x22       c33                           998
    x22       c34                           182
    x23       obj1                            1
    x23       c22                           771
    x23       c29                           178
    x23       c36                           343
    x24       obj1                            1
    x24       c6                            915
    x24       c12                           409
    x24       c14                           330
    x24       c33                           812
    x25       obj1                            1
    x25       c17                           274
    x25       c29                           420
    x25       c30                           499
    x25       c34                           176
    x25       c48                           606
    x26       obj1                            1
    x26       c10                           869
    x26       c12                           446
    x26       c18                           760
    x26       c39                           883
    x26       c44                           826
    x26       c49                           937
    x27       obj1                            1
    x27       c21                           895
    x27       c31                           976
    x28       obj1                            1
    x28       c8                            155
    x28       c17                           104
    x28       c27                           888
    x28       c44                           737
    x28       c49                           503
    x29       obj1                            1
    x29       c1                            442
    x29       c2                            748
    x29       c6                            670
    x29       c26                           780
    x29       c34                           263
    x30       obj1                            1
    x30       c14                           502
    x31       obj1                            1
    x31       c5                            874
    x31       c9                            366
    x31       c15                           963
    x31       c20                           322
    x31       c21                           828
    x31       c25                           932
    x31       c32                           712
    x31       c49                           638
    x32       obj1                            1
    x32       c8                            600
    x32       c39                           912
    x33       obj1                            1
    x33       c4                            244
    x33       c20                           788
    x33       c41                           966
    x34       obj1                            1
    x34       c7                            876
    x34       c19                           966
    x34       c35                           197
    x34       c44                           216
    x34       c46                           777
    x34       c48                           907
    x35       obj1                            1
    x35       c5                            804
    x35       c41                           926
    x35       c50                           277
    x36       obj1                            1
    x36       c7                            171
    x36       c11                           847
    x36       c20                           524
    x36       c34                           947
    x36       c47                           221
    x37       obj1                            1
    x37       c3                            386
    x37       c5                            641
    x37       c18                           189
    x37       c22                           720
    x37       c26                           274
    x37       c28                           703
    x38       obj1                            1
    x38       c24                           267
    x38       c36                           299
    x38       c44                           256
    x39       obj1                            1
    x39       c3                            233
    x39       c19                           913
    x39       c23                           531
    x39       c27                           188
    x39       c49                           956
    x40       obj1                            1
    x40       c11                           342
    x40       c25                           784
    x40       c48                           983
    x40       c49                           872
    x41       obj1                            1
    x41       c30                           840
    x41       c40                           938
    x42       obj1                            1
    x42       c12                           457
    x42       c39                           156
    x43       obj1                            1
    x43       c1                            740
    x43       c33                           695
    x44       obj1                            1
    x44       c1                            687
    x44       c9                            789
    x44       c11                           832
    x44       c12                           377
    x44       c28                           805
    x44       c33                           430
    x44       c41                           870
    x44       c46                           409
    x44       c50                           324
    x45       obj1                            1
    x45       c4                            886
    x45       c32                           475
    x45       c34                           914
    x45       c43                           455
    x46       obj1                            1
    x46       c1                            900
    x46       c5                            625
    x46       c29                           371
    x46       c40                           398
    x46       c43                           399
    x46       c45                           573
    x47       obj1                            1
    x47       c7                            628
    x47       c11                           532
    x47       c12                           985
    x47       c37                           155
    x47       c45                           501
    x48       obj1                            1
    x48       c9                            328
    x48       c23                           264
    x48       c47                           529
    x49       obj1                            1
    x49       c4                            345
    x49       c5                            226
    x49       c8                            725
    x49       c20                           481
    x49       c26                           845
    x49       c35                           158
    x49       c41                           802
    x50       obj1                            1
    x50       c1                            204
    x50       c4                            337
    x50       c13                           339
    x50       c24                           422
    x50       c31                           702
    x50       c33                           362
    x50       c35                           516
    x50       c46                           614
    x50       c49                           901
    MARK0001  'MARKER'                 'INTEND'
RHS
    rhs       c1                           1924
    rhs       c2                            938
    rhs       c3                            401
    rhs       c4                           1644
    rhs       c5                           1585
    rhs       c6                           2293
    rhs       c7                           1030
    rhs       c8                           1900
    rhs       c9                           1471
    rhs       c10                           859
    rhs       c11                          1277
    rhs       c12                          1857
    rhs       c13                           425
    rhs       c14                           758
    rhs       c15                          1246
    rhs       c16                           902
    rhs       c17                           706
    rhs       c18                          1240
    rhs       c19                          2758
    rhs       c20                          1058
    rhs       c21                          1733
    rhs       c22                          1071
    rhs       c23                          1357
    rhs       c24                          1001
    rhs       c25                          1029
    rhs       c26                          1355
    rhs       c27                          1128
    rhs       c28                          1640
    rhs       c29                          1577
    rhs       c30                           796
    rhs       c31                          2212
    rhs       c32                          1593
    rhs       c33                          2397
    rhs       c34                          1241
    rhs       c35                           800
    rhs       c36                          1070
    rhs       c37                          1125
    rhs       c38                           860
    rhs       c39                           976
    rhs       c40                           736
    rhs       c41                          2118
    rhs       c42                          1055
    rhs       c43                          1298
    rhs       c44                          1382
    rhs       c45                           911
    rhs       c46                          1349
    rhs       c47                           531
    rhs       c48                          1985
    rhs       c49                          2663
    rhs       c50                          1248
BOUNDS
 LI bnd       x1        0
 LI bnd       x2        0
 LI bnd       x3        0
 LI bnd       x4        0
 LI bnd       x5        0
 LI bnd       x6        0
 LI bnd       x7        0
 LI bnd       x8        0
 LI bnd       x9        0
 LI bnd       x10       0
 LI bnd       x11       0
 LI bnd       x12       0
 LI bnd       x13       0
 LI bnd       x14       0
 LI bnd       x15       0
 LI bnd       x16       0
 LI bnd       x17       0
 LI bnd       x18       0
 LI bnd       x19       0
 LI bnd       x20       0
 LI bnd       x21       0
 LI bnd       x22       0
 LI bnd       x23       0
 LI bnd       x24       0
 LI bnd       x25       0
 LI bnd       x26       0
 LI bnd       x27       0
 LI bnd       x28       0
 LI bnd       x29       0
 LI bnd       x30       0
 LI bnd       x31       0
 LI bnd       x32       0
 LI bnd       x33       0
 LI bnd       x34       0
 LI bnd       x35       0
 LI bnd       x36       0
 LI bnd       x37       0
 LI bnd       x38       0
 LI bnd       x39       0
 LI bnd       x40       0
 LI bnd       x41       0
 LI bnd       x42       0
 LI bnd       x43       0
 LI bnd       x44       0
 LI bnd       x45       0
 LI bnd       x46       0
 LI bnd       x47       0
 LI bnd       x48       0
 LI bnd       x49       0
 LI bnd       x50       0
ENDATA
